c *********************************
c * Circuit generated by BenCGen
c *
c * RippleCarryAdder_153_153_153_InOutT
c *
c * Ports with 1 gate(s): 1
c * Ports with 2 gate(s): 766
c * Total gates: 767
c *********************************
p cnf 1073 2606
1 462 0
-1 -462 0
1 -461 0
462 -461 0
-1 -462 461 0
1 154 -464 0
-1 154 464 0
1 -154 464 0
-1 -154 -464 0
464 461 -307 0
-464 461 307 0
464 -461 307 0
-464 -461 -307 0
461 -465 0
464 -465 0
-461 -464 465 0
154 -466 0
1 -466 0
-154 -1 466 0
-465 463 0
-466 463 0
465 466 -463 0
2 155 -468 0
-2 155 468 0
2 -155 468 0
-2 -155 -468 0
468 463 -308 0
-468 463 308 0
468 -463 308 0
-468 -463 -308 0
463 -469 0
468 -469 0
-463 -468 469 0
155 -470 0
2 -470 0
-155 -2 470 0
-469 467 0
-470 467 0
469 470 -467 0
3 156 -472 0
-3 156 472 0
3 -156 472 0
-3 -156 -472 0
472 467 -309 0
-472 467 309 0
472 -467 309 0
-472 -467 -309 0
467 -473 0
472 -473 0
-467 -472 473 0
156 -474 0
3 -474 0
-156 -3 474 0
-473 471 0
-474 471 0
473 474 -471 0
4 157 -476 0
-4 157 476 0
4 -157 476 0
-4 -157 -476 0
476 471 -310 0
-476 471 310 0
476 -471 310 0
-476 -471 -310 0
471 -477 0
476 -477 0
-471 -476 477 0
157 -478 0
4 -478 0
-157 -4 478 0
-477 475 0
-478 475 0
477 478 -475 0
5 158 -480 0
-5 158 480 0
5 -158 480 0
-5 -158 -480 0
480 475 -311 0
-480 475 311 0
480 -475 311 0
-480 -475 -311 0
475 -481 0
480 -481 0
-475 -480 481 0
158 -482 0
5 -482 0
-158 -5 482 0
-481 479 0
-482 479 0
481 482 -479 0
6 159 -484 0
-6 159 484 0
6 -159 484 0
-6 -159 -484 0
484 479 -312 0
-484 479 312 0
484 -479 312 0
-484 -479 -312 0
479 -485 0
484 -485 0
-479 -484 485 0
159 -486 0
6 -486 0
-159 -6 486 0
-485 483 0
-486 483 0
485 486 -483 0
7 160 -488 0
-7 160 488 0
7 -160 488 0
-7 -160 -488 0
488 483 -313 0
-488 483 313 0
488 -483 313 0
-488 -483 -313 0
483 -489 0
488 -489 0
-483 -488 489 0
160 -490 0
7 -490 0
-160 -7 490 0
-489 487 0
-490 487 0
489 490 -487 0
8 161 -492 0
-8 161 492 0
8 -161 492 0
-8 -161 -492 0
492 487 -314 0
-492 487 314 0
492 -487 314 0
-492 -487 -314 0
487 -493 0
492 -493 0
-487 -492 493 0
161 -494 0
8 -494 0
-161 -8 494 0
-493 491 0
-494 491 0
493 494 -491 0
9 162 -496 0
-9 162 496 0
9 -162 496 0
-9 -162 -496 0
496 491 -315 0
-496 491 315 0
496 -491 315 0
-496 -491 -315 0
491 -497 0
496 -497 0
-491 -496 497 0
162 -498 0
9 -498 0
-162 -9 498 0
-497 495 0
-498 495 0
497 498 -495 0
10 163 -500 0
-10 163 500 0
10 -163 500 0
-10 -163 -500 0
500 495 -316 0
-500 495 316 0
500 -495 316 0
-500 -495 -316 0
495 -501 0
500 -501 0
-495 -500 501 0
163 -502 0
10 -502 0
-163 -10 502 0
-501 499 0
-502 499 0
501 502 -499 0
11 164 -504 0
-11 164 504 0
11 -164 504 0
-11 -164 -504 0
504 499 -317 0
-504 499 317 0
504 -499 317 0
-504 -499 -317 0
499 -505 0
504 -505 0
-499 -504 505 0
164 -506 0
11 -506 0
-164 -11 506 0
-505 503 0
-506 503 0
505 506 -503 0
12 165 -508 0
-12 165 508 0
12 -165 508 0
-12 -165 -508 0
508 503 -318 0
-508 503 318 0
508 -503 318 0
-508 -503 -318 0
503 -509 0
508 -509 0
-503 -508 509 0
165 -510 0
12 -510 0
-165 -12 510 0
-509 507 0
-510 507 0
509 510 -507 0
13 166 -512 0
-13 166 512 0
13 -166 512 0
-13 -166 -512 0
512 507 -319 0
-512 507 319 0
512 -507 319 0
-512 -507 -319 0
507 -513 0
512 -513 0
-507 -512 513 0
166 -514 0
13 -514 0
-166 -13 514 0
-513 511 0
-514 511 0
513 514 -511 0
14 167 -516 0
-14 167 516 0
14 -167 516 0
-14 -167 -516 0
516 511 -320 0
-516 511 320 0
516 -511 320 0
-516 -511 -320 0
511 -517 0
516 -517 0
-511 -516 517 0
167 -518 0
14 -518 0
-167 -14 518 0
-517 515 0
-518 515 0
517 518 -515 0
15 168 -520 0
-15 168 520 0
15 -168 520 0
-15 -168 -520 0
520 515 -321 0
-520 515 321 0
520 -515 321 0
-520 -515 -321 0
515 -521 0
520 -521 0
-515 -520 521 0
168 -522 0
15 -522 0
-168 -15 522 0
-521 519 0
-522 519 0
521 522 -519 0
16 169 -524 0
-16 169 524 0
16 -169 524 0
-16 -169 -524 0
524 519 -322 0
-524 519 322 0
524 -519 322 0
-524 -519 -322 0
519 -525 0
524 -525 0
-519 -524 525 0
169 -526 0
16 -526 0
-169 -16 526 0
-525 523 0
-526 523 0
525 526 -523 0
17 170 -528 0
-17 170 528 0
17 -170 528 0
-17 -170 -528 0
528 523 -323 0
-528 523 323 0
528 -523 323 0
-528 -523 -323 0
523 -529 0
528 -529 0
-523 -528 529 0
170 -530 0
17 -530 0
-170 -17 530 0
-529 527 0
-530 527 0
529 530 -527 0
18 171 -532 0
-18 171 532 0
18 -171 532 0
-18 -171 -532 0
532 527 -324 0
-532 527 324 0
532 -527 324 0
-532 -527 -324 0
527 -533 0
532 -533 0
-527 -532 533 0
171 -534 0
18 -534 0
-171 -18 534 0
-533 531 0
-534 531 0
533 534 -531 0
19 172 -536 0
-19 172 536 0
19 -172 536 0
-19 -172 -536 0
536 531 -325 0
-536 531 325 0
536 -531 325 0
-536 -531 -325 0
531 -537 0
536 -537 0
-531 -536 537 0
172 -538 0
19 -538 0
-172 -19 538 0
-537 535 0
-538 535 0
537 538 -535 0
20 173 -540 0
-20 173 540 0
20 -173 540 0
-20 -173 -540 0
540 535 -326 0
-540 535 326 0
540 -535 326 0
-540 -535 -326 0
535 -541 0
540 -541 0
-535 -540 541 0
173 -542 0
20 -542 0
-173 -20 542 0
-541 539 0
-542 539 0
541 542 -539 0
21 174 -544 0
-21 174 544 0
21 -174 544 0
-21 -174 -544 0
544 539 -327 0
-544 539 327 0
544 -539 327 0
-544 -539 -327 0
539 -545 0
544 -545 0
-539 -544 545 0
174 -546 0
21 -546 0
-174 -21 546 0
-545 543 0
-546 543 0
545 546 -543 0
22 175 -548 0
-22 175 548 0
22 -175 548 0
-22 -175 -548 0
548 543 -328 0
-548 543 328 0
548 -543 328 0
-548 -543 -328 0
543 -549 0
548 -549 0
-543 -548 549 0
175 -550 0
22 -550 0
-175 -22 550 0
-549 547 0
-550 547 0
549 550 -547 0
23 176 -552 0
-23 176 552 0
23 -176 552 0
-23 -176 -552 0
552 547 -329 0
-552 547 329 0
552 -547 329 0
-552 -547 -329 0
547 -553 0
552 -553 0
-547 -552 553 0
176 -554 0
23 -554 0
-176 -23 554 0
-553 551 0
-554 551 0
553 554 -551 0
24 177 -556 0
-24 177 556 0
24 -177 556 0
-24 -177 -556 0
556 551 -330 0
-556 551 330 0
556 -551 330 0
-556 -551 -330 0
551 -557 0
556 -557 0
-551 -556 557 0
177 -558 0
24 -558 0
-177 -24 558 0
-557 555 0
-558 555 0
557 558 -555 0
25 178 -560 0
-25 178 560 0
25 -178 560 0
-25 -178 -560 0
560 555 -331 0
-560 555 331 0
560 -555 331 0
-560 -555 -331 0
555 -561 0
560 -561 0
-555 -560 561 0
178 -562 0
25 -562 0
-178 -25 562 0
-561 559 0
-562 559 0
561 562 -559 0
26 179 -564 0
-26 179 564 0
26 -179 564 0
-26 -179 -564 0
564 559 -332 0
-564 559 332 0
564 -559 332 0
-564 -559 -332 0
559 -565 0
564 -565 0
-559 -564 565 0
179 -566 0
26 -566 0
-179 -26 566 0
-565 563 0
-566 563 0
565 566 -563 0
27 180 -568 0
-27 180 568 0
27 -180 568 0
-27 -180 -568 0
568 563 -333 0
-568 563 333 0
568 -563 333 0
-568 -563 -333 0
563 -569 0
568 -569 0
-563 -568 569 0
180 -570 0
27 -570 0
-180 -27 570 0
-569 567 0
-570 567 0
569 570 -567 0
28 181 -572 0
-28 181 572 0
28 -181 572 0
-28 -181 -572 0
572 567 -334 0
-572 567 334 0
572 -567 334 0
-572 -567 -334 0
567 -573 0
572 -573 0
-567 -572 573 0
181 -574 0
28 -574 0
-181 -28 574 0
-573 571 0
-574 571 0
573 574 -571 0
29 182 -576 0
-29 182 576 0
29 -182 576 0
-29 -182 -576 0
576 571 -335 0
-576 571 335 0
576 -571 335 0
-576 -571 -335 0
571 -577 0
576 -577 0
-571 -576 577 0
182 -578 0
29 -578 0
-182 -29 578 0
-577 575 0
-578 575 0
577 578 -575 0
30 183 -580 0
-30 183 580 0
30 -183 580 0
-30 -183 -580 0
580 575 -336 0
-580 575 336 0
580 -575 336 0
-580 -575 -336 0
575 -581 0
580 -581 0
-575 -580 581 0
183 -582 0
30 -582 0
-183 -30 582 0
-581 579 0
-582 579 0
581 582 -579 0
31 184 -584 0
-31 184 584 0
31 -184 584 0
-31 -184 -584 0
584 579 -337 0
-584 579 337 0
584 -579 337 0
-584 -579 -337 0
579 -585 0
584 -585 0
-579 -584 585 0
184 -586 0
31 -586 0
-184 -31 586 0
-585 583 0
-586 583 0
585 586 -583 0
32 185 -588 0
-32 185 588 0
32 -185 588 0
-32 -185 -588 0
588 583 -338 0
-588 583 338 0
588 -583 338 0
-588 -583 -338 0
583 -589 0
588 -589 0
-583 -588 589 0
185 -590 0
32 -590 0
-185 -32 590 0
-589 587 0
-590 587 0
589 590 -587 0
33 186 -592 0
-33 186 592 0
33 -186 592 0
-33 -186 -592 0
592 587 -339 0
-592 587 339 0
592 -587 339 0
-592 -587 -339 0
587 -593 0
592 -593 0
-587 -592 593 0
186 -594 0
33 -594 0
-186 -33 594 0
-593 591 0
-594 591 0
593 594 -591 0
34 187 -596 0
-34 187 596 0
34 -187 596 0
-34 -187 -596 0
596 591 -340 0
-596 591 340 0
596 -591 340 0
-596 -591 -340 0
591 -597 0
596 -597 0
-591 -596 597 0
187 -598 0
34 -598 0
-187 -34 598 0
-597 595 0
-598 595 0
597 598 -595 0
35 188 -600 0
-35 188 600 0
35 -188 600 0
-35 -188 -600 0
600 595 -341 0
-600 595 341 0
600 -595 341 0
-600 -595 -341 0
595 -601 0
600 -601 0
-595 -600 601 0
188 -602 0
35 -602 0
-188 -35 602 0
-601 599 0
-602 599 0
601 602 -599 0
36 189 -604 0
-36 189 604 0
36 -189 604 0
-36 -189 -604 0
604 599 -342 0
-604 599 342 0
604 -599 342 0
-604 -599 -342 0
599 -605 0
604 -605 0
-599 -604 605 0
189 -606 0
36 -606 0
-189 -36 606 0
-605 603 0
-606 603 0
605 606 -603 0
37 190 -608 0
-37 190 608 0
37 -190 608 0
-37 -190 -608 0
608 603 -343 0
-608 603 343 0
608 -603 343 0
-608 -603 -343 0
603 -609 0
608 -609 0
-603 -608 609 0
190 -610 0
37 -610 0
-190 -37 610 0
-609 607 0
-610 607 0
609 610 -607 0
38 191 -612 0
-38 191 612 0
38 -191 612 0
-38 -191 -612 0
612 607 -344 0
-612 607 344 0
612 -607 344 0
-612 -607 -344 0
607 -613 0
612 -613 0
-607 -612 613 0
191 -614 0
38 -614 0
-191 -38 614 0
-613 611 0
-614 611 0
613 614 -611 0
39 192 -616 0
-39 192 616 0
39 -192 616 0
-39 -192 -616 0
616 611 -345 0
-616 611 345 0
616 -611 345 0
-616 -611 -345 0
611 -617 0
616 -617 0
-611 -616 617 0
192 -618 0
39 -618 0
-192 -39 618 0
-617 615 0
-618 615 0
617 618 -615 0
40 193 -620 0
-40 193 620 0
40 -193 620 0
-40 -193 -620 0
620 615 -346 0
-620 615 346 0
620 -615 346 0
-620 -615 -346 0
615 -621 0
620 -621 0
-615 -620 621 0
193 -622 0
40 -622 0
-193 -40 622 0
-621 619 0
-622 619 0
621 622 -619 0
41 194 -624 0
-41 194 624 0
41 -194 624 0
-41 -194 -624 0
624 619 -347 0
-624 619 347 0
624 -619 347 0
-624 -619 -347 0
619 -625 0
624 -625 0
-619 -624 625 0
194 -626 0
41 -626 0
-194 -41 626 0
-625 623 0
-626 623 0
625 626 -623 0
42 195 -628 0
-42 195 628 0
42 -195 628 0
-42 -195 -628 0
628 623 -348 0
-628 623 348 0
628 -623 348 0
-628 -623 -348 0
623 -629 0
628 -629 0
-623 -628 629 0
195 -630 0
42 -630 0
-195 -42 630 0
-629 627 0
-630 627 0
629 630 -627 0
43 196 -632 0
-43 196 632 0
43 -196 632 0
-43 -196 -632 0
632 627 -349 0
-632 627 349 0
632 -627 349 0
-632 -627 -349 0
627 -633 0
632 -633 0
-627 -632 633 0
196 -634 0
43 -634 0
-196 -43 634 0
-633 631 0
-634 631 0
633 634 -631 0
44 197 -636 0
-44 197 636 0
44 -197 636 0
-44 -197 -636 0
636 631 -350 0
-636 631 350 0
636 -631 350 0
-636 -631 -350 0
631 -637 0
636 -637 0
-631 -636 637 0
197 -638 0
44 -638 0
-197 -44 638 0
-637 635 0
-638 635 0
637 638 -635 0
45 198 -640 0
-45 198 640 0
45 -198 640 0
-45 -198 -640 0
640 635 -351 0
-640 635 351 0
640 -635 351 0
-640 -635 -351 0
635 -641 0
640 -641 0
-635 -640 641 0
198 -642 0
45 -642 0
-198 -45 642 0
-641 639 0
-642 639 0
641 642 -639 0
46 199 -644 0
-46 199 644 0
46 -199 644 0
-46 -199 -644 0
644 639 -352 0
-644 639 352 0
644 -639 352 0
-644 -639 -352 0
639 -645 0
644 -645 0
-639 -644 645 0
199 -646 0
46 -646 0
-199 -46 646 0
-645 643 0
-646 643 0
645 646 -643 0
47 200 -648 0
-47 200 648 0
47 -200 648 0
-47 -200 -648 0
648 643 -353 0
-648 643 353 0
648 -643 353 0
-648 -643 -353 0
643 -649 0
648 -649 0
-643 -648 649 0
200 -650 0
47 -650 0
-200 -47 650 0
-649 647 0
-650 647 0
649 650 -647 0
48 201 -652 0
-48 201 652 0
48 -201 652 0
-48 -201 -652 0
652 647 -354 0
-652 647 354 0
652 -647 354 0
-652 -647 -354 0
647 -653 0
652 -653 0
-647 -652 653 0
201 -654 0
48 -654 0
-201 -48 654 0
-653 651 0
-654 651 0
653 654 -651 0
49 202 -656 0
-49 202 656 0
49 -202 656 0
-49 -202 -656 0
656 651 -355 0
-656 651 355 0
656 -651 355 0
-656 -651 -355 0
651 -657 0
656 -657 0
-651 -656 657 0
202 -658 0
49 -658 0
-202 -49 658 0
-657 655 0
-658 655 0
657 658 -655 0
50 203 -660 0
-50 203 660 0
50 -203 660 0
-50 -203 -660 0
660 655 -356 0
-660 655 356 0
660 -655 356 0
-660 -655 -356 0
655 -661 0
660 -661 0
-655 -660 661 0
203 -662 0
50 -662 0
-203 -50 662 0
-661 659 0
-662 659 0
661 662 -659 0
51 204 -664 0
-51 204 664 0
51 -204 664 0
-51 -204 -664 0
664 659 -357 0
-664 659 357 0
664 -659 357 0
-664 -659 -357 0
659 -665 0
664 -665 0
-659 -664 665 0
204 -666 0
51 -666 0
-204 -51 666 0
-665 663 0
-666 663 0
665 666 -663 0
52 205 -668 0
-52 205 668 0
52 -205 668 0
-52 -205 -668 0
668 663 -358 0
-668 663 358 0
668 -663 358 0
-668 -663 -358 0
663 -669 0
668 -669 0
-663 -668 669 0
205 -670 0
52 -670 0
-205 -52 670 0
-669 667 0
-670 667 0
669 670 -667 0
53 206 -672 0
-53 206 672 0
53 -206 672 0
-53 -206 -672 0
672 667 -359 0
-672 667 359 0
672 -667 359 0
-672 -667 -359 0
667 -673 0
672 -673 0
-667 -672 673 0
206 -674 0
53 -674 0
-206 -53 674 0
-673 671 0
-674 671 0
673 674 -671 0
54 207 -676 0
-54 207 676 0
54 -207 676 0
-54 -207 -676 0
676 671 -360 0
-676 671 360 0
676 -671 360 0
-676 -671 -360 0
671 -677 0
676 -677 0
-671 -676 677 0
207 -678 0
54 -678 0
-207 -54 678 0
-677 675 0
-678 675 0
677 678 -675 0
55 208 -680 0
-55 208 680 0
55 -208 680 0
-55 -208 -680 0
680 675 -361 0
-680 675 361 0
680 -675 361 0
-680 -675 -361 0
675 -681 0
680 -681 0
-675 -680 681 0
208 -682 0
55 -682 0
-208 -55 682 0
-681 679 0
-682 679 0
681 682 -679 0
56 209 -684 0
-56 209 684 0
56 -209 684 0
-56 -209 -684 0
684 679 -362 0
-684 679 362 0
684 -679 362 0
-684 -679 -362 0
679 -685 0
684 -685 0
-679 -684 685 0
209 -686 0
56 -686 0
-209 -56 686 0
-685 683 0
-686 683 0
685 686 -683 0
57 210 -688 0
-57 210 688 0
57 -210 688 0
-57 -210 -688 0
688 683 -363 0
-688 683 363 0
688 -683 363 0
-688 -683 -363 0
683 -689 0
688 -689 0
-683 -688 689 0
210 -690 0
57 -690 0
-210 -57 690 0
-689 687 0
-690 687 0
689 690 -687 0
58 211 -692 0
-58 211 692 0
58 -211 692 0
-58 -211 -692 0
692 687 -364 0
-692 687 364 0
692 -687 364 0
-692 -687 -364 0
687 -693 0
692 -693 0
-687 -692 693 0
211 -694 0
58 -694 0
-211 -58 694 0
-693 691 0
-694 691 0
693 694 -691 0
59 212 -696 0
-59 212 696 0
59 -212 696 0
-59 -212 -696 0
696 691 -365 0
-696 691 365 0
696 -691 365 0
-696 -691 -365 0
691 -697 0
696 -697 0
-691 -696 697 0
212 -698 0
59 -698 0
-212 -59 698 0
-697 695 0
-698 695 0
697 698 -695 0
60 213 -700 0
-60 213 700 0
60 -213 700 0
-60 -213 -700 0
700 695 -366 0
-700 695 366 0
700 -695 366 0
-700 -695 -366 0
695 -701 0
700 -701 0
-695 -700 701 0
213 -702 0
60 -702 0
-213 -60 702 0
-701 699 0
-702 699 0
701 702 -699 0
61 214 -704 0
-61 214 704 0
61 -214 704 0
-61 -214 -704 0
704 699 -367 0
-704 699 367 0
704 -699 367 0
-704 -699 -367 0
699 -705 0
704 -705 0
-699 -704 705 0
214 -706 0
61 -706 0
-214 -61 706 0
-705 703 0
-706 703 0
705 706 -703 0
62 215 -708 0
-62 215 708 0
62 -215 708 0
-62 -215 -708 0
708 703 -368 0
-708 703 368 0
708 -703 368 0
-708 -703 -368 0
703 -709 0
708 -709 0
-703 -708 709 0
215 -710 0
62 -710 0
-215 -62 710 0
-709 707 0
-710 707 0
709 710 -707 0
63 216 -712 0
-63 216 712 0
63 -216 712 0
-63 -216 -712 0
712 707 -369 0
-712 707 369 0
712 -707 369 0
-712 -707 -369 0
707 -713 0
712 -713 0
-707 -712 713 0
216 -714 0
63 -714 0
-216 -63 714 0
-713 711 0
-714 711 0
713 714 -711 0
64 217 -716 0
-64 217 716 0
64 -217 716 0
-64 -217 -716 0
716 711 -370 0
-716 711 370 0
716 -711 370 0
-716 -711 -370 0
711 -717 0
716 -717 0
-711 -716 717 0
217 -718 0
64 -718 0
-217 -64 718 0
-717 715 0
-718 715 0
717 718 -715 0
65 218 -720 0
-65 218 720 0
65 -218 720 0
-65 -218 -720 0
720 715 -371 0
-720 715 371 0
720 -715 371 0
-720 -715 -371 0
715 -721 0
720 -721 0
-715 -720 721 0
218 -722 0
65 -722 0
-218 -65 722 0
-721 719 0
-722 719 0
721 722 -719 0
66 219 -724 0
-66 219 724 0
66 -219 724 0
-66 -219 -724 0
724 719 -372 0
-724 719 372 0
724 -719 372 0
-724 -719 -372 0
719 -725 0
724 -725 0
-719 -724 725 0
219 -726 0
66 -726 0
-219 -66 726 0
-725 723 0
-726 723 0
725 726 -723 0
67 220 -728 0
-67 220 728 0
67 -220 728 0
-67 -220 -728 0
728 723 -373 0
-728 723 373 0
728 -723 373 0
-728 -723 -373 0
723 -729 0
728 -729 0
-723 -728 729 0
220 -730 0
67 -730 0
-220 -67 730 0
-729 727 0
-730 727 0
729 730 -727 0
68 221 -732 0
-68 221 732 0
68 -221 732 0
-68 -221 -732 0
732 727 -374 0
-732 727 374 0
732 -727 374 0
-732 -727 -374 0
727 -733 0
732 -733 0
-727 -732 733 0
221 -734 0
68 -734 0
-221 -68 734 0
-733 731 0
-734 731 0
733 734 -731 0
69 222 -736 0
-69 222 736 0
69 -222 736 0
-69 -222 -736 0
736 731 -375 0
-736 731 375 0
736 -731 375 0
-736 -731 -375 0
731 -737 0
736 -737 0
-731 -736 737 0
222 -738 0
69 -738 0
-222 -69 738 0
-737 735 0
-738 735 0
737 738 -735 0
70 223 -740 0
-70 223 740 0
70 -223 740 0
-70 -223 -740 0
740 735 -376 0
-740 735 376 0
740 -735 376 0
-740 -735 -376 0
735 -741 0
740 -741 0
-735 -740 741 0
223 -742 0
70 -742 0
-223 -70 742 0
-741 739 0
-742 739 0
741 742 -739 0
71 224 -744 0
-71 224 744 0
71 -224 744 0
-71 -224 -744 0
744 739 -377 0
-744 739 377 0
744 -739 377 0
-744 -739 -377 0
739 -745 0
744 -745 0
-739 -744 745 0
224 -746 0
71 -746 0
-224 -71 746 0
-745 743 0
-746 743 0
745 746 -743 0
72 225 -748 0
-72 225 748 0
72 -225 748 0
-72 -225 -748 0
748 743 -378 0
-748 743 378 0
748 -743 378 0
-748 -743 -378 0
743 -749 0
748 -749 0
-743 -748 749 0
225 -750 0
72 -750 0
-225 -72 750 0
-749 747 0
-750 747 0
749 750 -747 0
73 226 -752 0
-73 226 752 0
73 -226 752 0
-73 -226 -752 0
752 747 -379 0
-752 747 379 0
752 -747 379 0
-752 -747 -379 0
747 -753 0
752 -753 0
-747 -752 753 0
226 -754 0
73 -754 0
-226 -73 754 0
-753 751 0
-754 751 0
753 754 -751 0
74 227 -756 0
-74 227 756 0
74 -227 756 0
-74 -227 -756 0
756 751 -380 0
-756 751 380 0
756 -751 380 0
-756 -751 -380 0
751 -757 0
756 -757 0
-751 -756 757 0
227 -758 0
74 -758 0
-227 -74 758 0
-757 755 0
-758 755 0
757 758 -755 0
75 228 -760 0
-75 228 760 0
75 -228 760 0
-75 -228 -760 0
760 755 -381 0
-760 755 381 0
760 -755 381 0
-760 -755 -381 0
755 -761 0
760 -761 0
-755 -760 761 0
228 -762 0
75 -762 0
-228 -75 762 0
-761 759 0
-762 759 0
761 762 -759 0
76 229 -764 0
-76 229 764 0
76 -229 764 0
-76 -229 -764 0
764 759 -382 0
-764 759 382 0
764 -759 382 0
-764 -759 -382 0
759 -765 0
764 -765 0
-759 -764 765 0
229 -766 0
76 -766 0
-229 -76 766 0
-765 763 0
-766 763 0
765 766 -763 0
77 230 -768 0
-77 230 768 0
77 -230 768 0
-77 -230 -768 0
768 763 -383 0
-768 763 383 0
768 -763 383 0
-768 -763 -383 0
763 -769 0
768 -769 0
-763 -768 769 0
230 -770 0
77 -770 0
-230 -77 770 0
-769 767 0
-770 767 0
769 770 -767 0
78 231 -772 0
-78 231 772 0
78 -231 772 0
-78 -231 -772 0
772 767 -384 0
-772 767 384 0
772 -767 384 0
-772 -767 -384 0
767 -773 0
772 -773 0
-767 -772 773 0
231 -774 0
78 -774 0
-231 -78 774 0
-773 771 0
-774 771 0
773 774 -771 0
79 232 -776 0
-79 232 776 0
79 -232 776 0
-79 -232 -776 0
776 771 -385 0
-776 771 385 0
776 -771 385 0
-776 -771 -385 0
771 -777 0
776 -777 0
-771 -776 777 0
232 -778 0
79 -778 0
-232 -79 778 0
-777 775 0
-778 775 0
777 778 -775 0
80 233 -780 0
-80 233 780 0
80 -233 780 0
-80 -233 -780 0
780 775 -386 0
-780 775 386 0
780 -775 386 0
-780 -775 -386 0
775 -781 0
780 -781 0
-775 -780 781 0
233 -782 0
80 -782 0
-233 -80 782 0
-781 779 0
-782 779 0
781 782 -779 0
81 234 -784 0
-81 234 784 0
81 -234 784 0
-81 -234 -784 0
784 779 -387 0
-784 779 387 0
784 -779 387 0
-784 -779 -387 0
779 -785 0
784 -785 0
-779 -784 785 0
234 -786 0
81 -786 0
-234 -81 786 0
-785 783 0
-786 783 0
785 786 -783 0
82 235 -788 0
-82 235 788 0
82 -235 788 0
-82 -235 -788 0
788 783 -388 0
-788 783 388 0
788 -783 388 0
-788 -783 -388 0
783 -789 0
788 -789 0
-783 -788 789 0
235 -790 0
82 -790 0
-235 -82 790 0
-789 787 0
-790 787 0
789 790 -787 0
83 236 -792 0
-83 236 792 0
83 -236 792 0
-83 -236 -792 0
792 787 -389 0
-792 787 389 0
792 -787 389 0
-792 -787 -389 0
787 -793 0
792 -793 0
-787 -792 793 0
236 -794 0
83 -794 0
-236 -83 794 0
-793 791 0
-794 791 0
793 794 -791 0
84 237 -796 0
-84 237 796 0
84 -237 796 0
-84 -237 -796 0
796 791 -390 0
-796 791 390 0
796 -791 390 0
-796 -791 -390 0
791 -797 0
796 -797 0
-791 -796 797 0
237 -798 0
84 -798 0
-237 -84 798 0
-797 795 0
-798 795 0
797 798 -795 0
85 238 -800 0
-85 238 800 0
85 -238 800 0
-85 -238 -800 0
800 795 -391 0
-800 795 391 0
800 -795 391 0
-800 -795 -391 0
795 -801 0
800 -801 0
-795 -800 801 0
238 -802 0
85 -802 0
-238 -85 802 0
-801 799 0
-802 799 0
801 802 -799 0
86 239 -804 0
-86 239 804 0
86 -239 804 0
-86 -239 -804 0
804 799 -392 0
-804 799 392 0
804 -799 392 0
-804 -799 -392 0
799 -805 0
804 -805 0
-799 -804 805 0
239 -806 0
86 -806 0
-239 -86 806 0
-805 803 0
-806 803 0
805 806 -803 0
87 240 -808 0
-87 240 808 0
87 -240 808 0
-87 -240 -808 0
808 803 -393 0
-808 803 393 0
808 -803 393 0
-808 -803 -393 0
803 -809 0
808 -809 0
-803 -808 809 0
240 -810 0
87 -810 0
-240 -87 810 0
-809 807 0
-810 807 0
809 810 -807 0
88 241 -812 0
-88 241 812 0
88 -241 812 0
-88 -241 -812 0
812 807 -394 0
-812 807 394 0
812 -807 394 0
-812 -807 -394 0
807 -813 0
812 -813 0
-807 -812 813 0
241 -814 0
88 -814 0
-241 -88 814 0
-813 811 0
-814 811 0
813 814 -811 0
89 242 -816 0
-89 242 816 0
89 -242 816 0
-89 -242 -816 0
816 811 -395 0
-816 811 395 0
816 -811 395 0
-816 -811 -395 0
811 -817 0
816 -817 0
-811 -816 817 0
242 -818 0
89 -818 0
-242 -89 818 0
-817 815 0
-818 815 0
817 818 -815 0
90 243 -820 0
-90 243 820 0
90 -243 820 0
-90 -243 -820 0
820 815 -396 0
-820 815 396 0
820 -815 396 0
-820 -815 -396 0
815 -821 0
820 -821 0
-815 -820 821 0
243 -822 0
90 -822 0
-243 -90 822 0
-821 819 0
-822 819 0
821 822 -819 0
91 244 -824 0
-91 244 824 0
91 -244 824 0
-91 -244 -824 0
824 819 -397 0
-824 819 397 0
824 -819 397 0
-824 -819 -397 0
819 -825 0
824 -825 0
-819 -824 825 0
244 -826 0
91 -826 0
-244 -91 826 0
-825 823 0
-826 823 0
825 826 -823 0
92 245 -828 0
-92 245 828 0
92 -245 828 0
-92 -245 -828 0
828 823 -398 0
-828 823 398 0
828 -823 398 0
-828 -823 -398 0
823 -829 0
828 -829 0
-823 -828 829 0
245 -830 0
92 -830 0
-245 -92 830 0
-829 827 0
-830 827 0
829 830 -827 0
93 246 -832 0
-93 246 832 0
93 -246 832 0
-93 -246 -832 0
832 827 -399 0
-832 827 399 0
832 -827 399 0
-832 -827 -399 0
827 -833 0
832 -833 0
-827 -832 833 0
246 -834 0
93 -834 0
-246 -93 834 0
-833 831 0
-834 831 0
833 834 -831 0
94 247 -836 0
-94 247 836 0
94 -247 836 0
-94 -247 -836 0
836 831 -400 0
-836 831 400 0
836 -831 400 0
-836 -831 -400 0
831 -837 0
836 -837 0
-831 -836 837 0
247 -838 0
94 -838 0
-247 -94 838 0
-837 835 0
-838 835 0
837 838 -835 0
95 248 -840 0
-95 248 840 0
95 -248 840 0
-95 -248 -840 0
840 835 -401 0
-840 835 401 0
840 -835 401 0
-840 -835 -401 0
835 -841 0
840 -841 0
-835 -840 841 0
248 -842 0
95 -842 0
-248 -95 842 0
-841 839 0
-842 839 0
841 842 -839 0
96 249 -844 0
-96 249 844 0
96 -249 844 0
-96 -249 -844 0
844 839 -402 0
-844 839 402 0
844 -839 402 0
-844 -839 -402 0
839 -845 0
844 -845 0
-839 -844 845 0
249 -846 0
96 -846 0
-249 -96 846 0
-845 843 0
-846 843 0
845 846 -843 0
97 250 -848 0
-97 250 848 0
97 -250 848 0
-97 -250 -848 0
848 843 -403 0
-848 843 403 0
848 -843 403 0
-848 -843 -403 0
843 -849 0
848 -849 0
-843 -848 849 0
250 -850 0
97 -850 0
-250 -97 850 0
-849 847 0
-850 847 0
849 850 -847 0
98 251 -852 0
-98 251 852 0
98 -251 852 0
-98 -251 -852 0
852 847 -404 0
-852 847 404 0
852 -847 404 0
-852 -847 -404 0
847 -853 0
852 -853 0
-847 -852 853 0
251 -854 0
98 -854 0
-251 -98 854 0
-853 851 0
-854 851 0
853 854 -851 0
99 252 -856 0
-99 252 856 0
99 -252 856 0
-99 -252 -856 0
856 851 -405 0
-856 851 405 0
856 -851 405 0
-856 -851 -405 0
851 -857 0
856 -857 0
-851 -856 857 0
252 -858 0
99 -858 0
-252 -99 858 0
-857 855 0
-858 855 0
857 858 -855 0
100 253 -860 0
-100 253 860 0
100 -253 860 0
-100 -253 -860 0
860 855 -406 0
-860 855 406 0
860 -855 406 0
-860 -855 -406 0
855 -861 0
860 -861 0
-855 -860 861 0
253 -862 0
100 -862 0
-253 -100 862 0
-861 859 0
-862 859 0
861 862 -859 0
101 254 -864 0
-101 254 864 0
101 -254 864 0
-101 -254 -864 0
864 859 -407 0
-864 859 407 0
864 -859 407 0
-864 -859 -407 0
859 -865 0
864 -865 0
-859 -864 865 0
254 -866 0
101 -866 0
-254 -101 866 0
-865 863 0
-866 863 0
865 866 -863 0
102 255 -868 0
-102 255 868 0
102 -255 868 0
-102 -255 -868 0
868 863 -408 0
-868 863 408 0
868 -863 408 0
-868 -863 -408 0
863 -869 0
868 -869 0
-863 -868 869 0
255 -870 0
102 -870 0
-255 -102 870 0
-869 867 0
-870 867 0
869 870 -867 0
103 256 -872 0
-103 256 872 0
103 -256 872 0
-103 -256 -872 0
872 867 -409 0
-872 867 409 0
872 -867 409 0
-872 -867 -409 0
867 -873 0
872 -873 0
-867 -872 873 0
256 -874 0
103 -874 0
-256 -103 874 0
-873 871 0
-874 871 0
873 874 -871 0
104 257 -876 0
-104 257 876 0
104 -257 876 0
-104 -257 -876 0
876 871 -410 0
-876 871 410 0
876 -871 410 0
-876 -871 -410 0
871 -877 0
876 -877 0
-871 -876 877 0
257 -878 0
104 -878 0
-257 -104 878 0
-877 875 0
-878 875 0
877 878 -875 0
105 258 -880 0
-105 258 880 0
105 -258 880 0
-105 -258 -880 0
880 875 -411 0
-880 875 411 0
880 -875 411 0
-880 -875 -411 0
875 -881 0
880 -881 0
-875 -880 881 0
258 -882 0
105 -882 0
-258 -105 882 0
-881 879 0
-882 879 0
881 882 -879 0
106 259 -884 0
-106 259 884 0
106 -259 884 0
-106 -259 -884 0
884 879 -412 0
-884 879 412 0
884 -879 412 0
-884 -879 -412 0
879 -885 0
884 -885 0
-879 -884 885 0
259 -886 0
106 -886 0
-259 -106 886 0
-885 883 0
-886 883 0
885 886 -883 0
107 260 -888 0
-107 260 888 0
107 -260 888 0
-107 -260 -888 0
888 883 -413 0
-888 883 413 0
888 -883 413 0
-888 -883 -413 0
883 -889 0
888 -889 0
-883 -888 889 0
260 -890 0
107 -890 0
-260 -107 890 0
-889 887 0
-890 887 0
889 890 -887 0
108 261 -892 0
-108 261 892 0
108 -261 892 0
-108 -261 -892 0
892 887 -414 0
-892 887 414 0
892 -887 414 0
-892 -887 -414 0
887 -893 0
892 -893 0
-887 -892 893 0
261 -894 0
108 -894 0
-261 -108 894 0
-893 891 0
-894 891 0
893 894 -891 0
109 262 -896 0
-109 262 896 0
109 -262 896 0
-109 -262 -896 0
896 891 -415 0
-896 891 415 0
896 -891 415 0
-896 -891 -415 0
891 -897 0
896 -897 0
-891 -896 897 0
262 -898 0
109 -898 0
-262 -109 898 0
-897 895 0
-898 895 0
897 898 -895 0
110 263 -900 0
-110 263 900 0
110 -263 900 0
-110 -263 -900 0
900 895 -416 0
-900 895 416 0
900 -895 416 0
-900 -895 -416 0
895 -901 0
900 -901 0
-895 -900 901 0
263 -902 0
110 -902 0
-263 -110 902 0
-901 899 0
-902 899 0
901 902 -899 0
111 264 -904 0
-111 264 904 0
111 -264 904 0
-111 -264 -904 0
904 899 -417 0
-904 899 417 0
904 -899 417 0
-904 -899 -417 0
899 -905 0
904 -905 0
-899 -904 905 0
264 -906 0
111 -906 0
-264 -111 906 0
-905 903 0
-906 903 0
905 906 -903 0
112 265 -908 0
-112 265 908 0
112 -265 908 0
-112 -265 -908 0
908 903 -418 0
-908 903 418 0
908 -903 418 0
-908 -903 -418 0
903 -909 0
908 -909 0
-903 -908 909 0
265 -910 0
112 -910 0
-265 -112 910 0
-909 907 0
-910 907 0
909 910 -907 0
113 266 -912 0
-113 266 912 0
113 -266 912 0
-113 -266 -912 0
912 907 -419 0
-912 907 419 0
912 -907 419 0
-912 -907 -419 0
907 -913 0
912 -913 0
-907 -912 913 0
266 -914 0
113 -914 0
-266 -113 914 0
-913 911 0
-914 911 0
913 914 -911 0
114 267 -916 0
-114 267 916 0
114 -267 916 0
-114 -267 -916 0
916 911 -420 0
-916 911 420 0
916 -911 420 0
-916 -911 -420 0
911 -917 0
916 -917 0
-911 -916 917 0
267 -918 0
114 -918 0
-267 -114 918 0
-917 915 0
-918 915 0
917 918 -915 0
115 268 -920 0
-115 268 920 0
115 -268 920 0
-115 -268 -920 0
920 915 -421 0
-920 915 421 0
920 -915 421 0
-920 -915 -421 0
915 -921 0
920 -921 0
-915 -920 921 0
268 -922 0
115 -922 0
-268 -115 922 0
-921 919 0
-922 919 0
921 922 -919 0
116 269 -924 0
-116 269 924 0
116 -269 924 0
-116 -269 -924 0
924 919 -422 0
-924 919 422 0
924 -919 422 0
-924 -919 -422 0
919 -925 0
924 -925 0
-919 -924 925 0
269 -926 0
116 -926 0
-269 -116 926 0
-925 923 0
-926 923 0
925 926 -923 0
117 270 -928 0
-117 270 928 0
117 -270 928 0
-117 -270 -928 0
928 923 -423 0
-928 923 423 0
928 -923 423 0
-928 -923 -423 0
923 -929 0
928 -929 0
-923 -928 929 0
270 -930 0
117 -930 0
-270 -117 930 0
-929 927 0
-930 927 0
929 930 -927 0
118 271 -932 0
-118 271 932 0
118 -271 932 0
-118 -271 -932 0
932 927 -424 0
-932 927 424 0
932 -927 424 0
-932 -927 -424 0
927 -933 0
932 -933 0
-927 -932 933 0
271 -934 0
118 -934 0
-271 -118 934 0
-933 931 0
-934 931 0
933 934 -931 0
119 272 -936 0
-119 272 936 0
119 -272 936 0
-119 -272 -936 0
936 931 -425 0
-936 931 425 0
936 -931 425 0
-936 -931 -425 0
931 -937 0
936 -937 0
-931 -936 937 0
272 -938 0
119 -938 0
-272 -119 938 0
-937 935 0
-938 935 0
937 938 -935 0
120 273 -940 0
-120 273 940 0
120 -273 940 0
-120 -273 -940 0
940 935 -426 0
-940 935 426 0
940 -935 426 0
-940 -935 -426 0
935 -941 0
940 -941 0
-935 -940 941 0
273 -942 0
120 -942 0
-273 -120 942 0
-941 939 0
-942 939 0
941 942 -939 0
121 274 -944 0
-121 274 944 0
121 -274 944 0
-121 -274 -944 0
944 939 -427 0
-944 939 427 0
944 -939 427 0
-944 -939 -427 0
939 -945 0
944 -945 0
-939 -944 945 0
274 -946 0
121 -946 0
-274 -121 946 0
-945 943 0
-946 943 0
945 946 -943 0
122 275 -948 0
-122 275 948 0
122 -275 948 0
-122 -275 -948 0
948 943 -428 0
-948 943 428 0
948 -943 428 0
-948 -943 -428 0
943 -949 0
948 -949 0
-943 -948 949 0
275 -950 0
122 -950 0
-275 -122 950 0
-949 947 0
-950 947 0
949 950 -947 0
123 276 -952 0
-123 276 952 0
123 -276 952 0
-123 -276 -952 0
952 947 -429 0
-952 947 429 0
952 -947 429 0
-952 -947 -429 0
947 -953 0
952 -953 0
-947 -952 953 0
276 -954 0
123 -954 0
-276 -123 954 0
-953 951 0
-954 951 0
953 954 -951 0
124 277 -956 0
-124 277 956 0
124 -277 956 0
-124 -277 -956 0
956 951 -430 0
-956 951 430 0
956 -951 430 0
-956 -951 -430 0
951 -957 0
956 -957 0
-951 -956 957 0
277 -958 0
124 -958 0
-277 -124 958 0
-957 955 0
-958 955 0
957 958 -955 0
125 278 -960 0
-125 278 960 0
125 -278 960 0
-125 -278 -960 0
960 955 -431 0
-960 955 431 0
960 -955 431 0
-960 -955 -431 0
955 -961 0
960 -961 0
-955 -960 961 0
278 -962 0
125 -962 0
-278 -125 962 0
-961 959 0
-962 959 0
961 962 -959 0
126 279 -964 0
-126 279 964 0
126 -279 964 0
-126 -279 -964 0
964 959 -432 0
-964 959 432 0
964 -959 432 0
-964 -959 -432 0
959 -965 0
964 -965 0
-959 -964 965 0
279 -966 0
126 -966 0
-279 -126 966 0
-965 963 0
-966 963 0
965 966 -963 0
127 280 -968 0
-127 280 968 0
127 -280 968 0
-127 -280 -968 0
968 963 -433 0
-968 963 433 0
968 -963 433 0
-968 -963 -433 0
963 -969 0
968 -969 0
-963 -968 969 0
280 -970 0
127 -970 0
-280 -127 970 0
-969 967 0
-970 967 0
969 970 -967 0
128 281 -972 0
-128 281 972 0
128 -281 972 0
-128 -281 -972 0
972 967 -434 0
-972 967 434 0
972 -967 434 0
-972 -967 -434 0
967 -973 0
972 -973 0
-967 -972 973 0
281 -974 0
128 -974 0
-281 -128 974 0
-973 971 0
-974 971 0
973 974 -971 0
129 282 -976 0
-129 282 976 0
129 -282 976 0
-129 -282 -976 0
976 971 -435 0
-976 971 435 0
976 -971 435 0
-976 -971 -435 0
971 -977 0
976 -977 0
-971 -976 977 0
282 -978 0
129 -978 0
-282 -129 978 0
-977 975 0
-978 975 0
977 978 -975 0
130 283 -980 0
-130 283 980 0
130 -283 980 0
-130 -283 -980 0
980 975 -436 0
-980 975 436 0
980 -975 436 0
-980 -975 -436 0
975 -981 0
980 -981 0
-975 -980 981 0
283 -982 0
130 -982 0
-283 -130 982 0
-981 979 0
-982 979 0
981 982 -979 0
131 284 -984 0
-131 284 984 0
131 -284 984 0
-131 -284 -984 0
984 979 -437 0
-984 979 437 0
984 -979 437 0
-984 -979 -437 0
979 -985 0
984 -985 0
-979 -984 985 0
284 -986 0
131 -986 0
-284 -131 986 0
-985 983 0
-986 983 0
985 986 -983 0
132 285 -988 0
-132 285 988 0
132 -285 988 0
-132 -285 -988 0
988 983 -438 0
-988 983 438 0
988 -983 438 0
-988 -983 -438 0
983 -989 0
988 -989 0
-983 -988 989 0
285 -990 0
132 -990 0
-285 -132 990 0
-989 987 0
-990 987 0
989 990 -987 0
133 286 -992 0
-133 286 992 0
133 -286 992 0
-133 -286 -992 0
992 987 -439 0
-992 987 439 0
992 -987 439 0
-992 -987 -439 0
987 -993 0
992 -993 0
-987 -992 993 0
286 -994 0
133 -994 0
-286 -133 994 0
-993 991 0
-994 991 0
993 994 -991 0
134 287 -996 0
-134 287 996 0
134 -287 996 0
-134 -287 -996 0
996 991 -440 0
-996 991 440 0
996 -991 440 0
-996 -991 -440 0
991 -997 0
996 -997 0
-991 -996 997 0
287 -998 0
134 -998 0
-287 -134 998 0
-997 995 0
-998 995 0
997 998 -995 0
135 288 -1000 0
-135 288 1000 0
135 -288 1000 0
-135 -288 -1000 0
1000 995 -441 0
-1000 995 441 0
1000 -995 441 0
-1000 -995 -441 0
995 -1001 0
1000 -1001 0
-995 -1000 1001 0
288 -1002 0
135 -1002 0
-288 -135 1002 0
-1001 999 0
-1002 999 0
1001 1002 -999 0
136 289 -1004 0
-136 289 1004 0
136 -289 1004 0
-136 -289 -1004 0
1004 999 -442 0
-1004 999 442 0
1004 -999 442 0
-1004 -999 -442 0
999 -1005 0
1004 -1005 0
-999 -1004 1005 0
289 -1006 0
136 -1006 0
-289 -136 1006 0
-1005 1003 0
-1006 1003 0
1005 1006 -1003 0
137 290 -1008 0
-137 290 1008 0
137 -290 1008 0
-137 -290 -1008 0
1008 1003 -443 0
-1008 1003 443 0
1008 -1003 443 0
-1008 -1003 -443 0
1003 -1009 0
1008 -1009 0
-1003 -1008 1009 0
290 -1010 0
137 -1010 0
-290 -137 1010 0
-1009 1007 0
-1010 1007 0
1009 1010 -1007 0
138 291 -1012 0
-138 291 1012 0
138 -291 1012 0
-138 -291 -1012 0
1012 1007 -444 0
-1012 1007 444 0
1012 -1007 444 0
-1012 -1007 -444 0
1007 -1013 0
1012 -1013 0
-1007 -1012 1013 0
291 -1014 0
138 -1014 0
-291 -138 1014 0
-1013 1011 0
-1014 1011 0
1013 1014 -1011 0
139 292 -1016 0
-139 292 1016 0
139 -292 1016 0
-139 -292 -1016 0
1016 1011 -445 0
-1016 1011 445 0
1016 -1011 445 0
-1016 -1011 -445 0
1011 -1017 0
1016 -1017 0
-1011 -1016 1017 0
292 -1018 0
139 -1018 0
-292 -139 1018 0
-1017 1015 0
-1018 1015 0
1017 1018 -1015 0
140 293 -1020 0
-140 293 1020 0
140 -293 1020 0
-140 -293 -1020 0
1020 1015 -446 0
-1020 1015 446 0
1020 -1015 446 0
-1020 -1015 -446 0
1015 -1021 0
1020 -1021 0
-1015 -1020 1021 0
293 -1022 0
140 -1022 0
-293 -140 1022 0
-1021 1019 0
-1022 1019 0
1021 1022 -1019 0
141 294 -1024 0
-141 294 1024 0
141 -294 1024 0
-141 -294 -1024 0
1024 1019 -447 0
-1024 1019 447 0
1024 -1019 447 0
-1024 -1019 -447 0
1019 -1025 0
1024 -1025 0
-1019 -1024 1025 0
294 -1026 0
141 -1026 0
-294 -141 1026 0
-1025 1023 0
-1026 1023 0
1025 1026 -1023 0
142 295 -1028 0
-142 295 1028 0
142 -295 1028 0
-142 -295 -1028 0
1028 1023 -448 0
-1028 1023 448 0
1028 -1023 448 0
-1028 -1023 -448 0
1023 -1029 0
1028 -1029 0
-1023 -1028 1029 0
295 -1030 0
142 -1030 0
-295 -142 1030 0
-1029 1027 0
-1030 1027 0
1029 1030 -1027 0
143 296 -1032 0
-143 296 1032 0
143 -296 1032 0
-143 -296 -1032 0
1032 1027 -449 0
-1032 1027 449 0
1032 -1027 449 0
-1032 -1027 -449 0
1027 -1033 0
1032 -1033 0
-1027 -1032 1033 0
296 -1034 0
143 -1034 0
-296 -143 1034 0
-1033 1031 0
-1034 1031 0
1033 1034 -1031 0
144 297 -1036 0
-144 297 1036 0
144 -297 1036 0
-144 -297 -1036 0
1036 1031 -450 0
-1036 1031 450 0
1036 -1031 450 0
-1036 -1031 -450 0
1031 -1037 0
1036 -1037 0
-1031 -1036 1037 0
297 -1038 0
144 -1038 0
-297 -144 1038 0
-1037 1035 0
-1038 1035 0
1037 1038 -1035 0
145 298 -1040 0
-145 298 1040 0
145 -298 1040 0
-145 -298 -1040 0
1040 1035 -451 0
-1040 1035 451 0
1040 -1035 451 0
-1040 -1035 -451 0
1035 -1041 0
1040 -1041 0
-1035 -1040 1041 0
298 -1042 0
145 -1042 0
-298 -145 1042 0
-1041 1039 0
-1042 1039 0
1041 1042 -1039 0
146 299 -1044 0
-146 299 1044 0
146 -299 1044 0
-146 -299 -1044 0
1044 1039 -452 0
-1044 1039 452 0
1044 -1039 452 0
-1044 -1039 -452 0
1039 -1045 0
1044 -1045 0
-1039 -1044 1045 0
299 -1046 0
146 -1046 0
-299 -146 1046 0
-1045 1043 0
-1046 1043 0
1045 1046 -1043 0
147 300 -1048 0
-147 300 1048 0
147 -300 1048 0
-147 -300 -1048 0
1048 1043 -453 0
-1048 1043 453 0
1048 -1043 453 0
-1048 -1043 -453 0
1043 -1049 0
1048 -1049 0
-1043 -1048 1049 0
300 -1050 0
147 -1050 0
-300 -147 1050 0
-1049 1047 0
-1050 1047 0
1049 1050 -1047 0
148 301 -1052 0
-148 301 1052 0
148 -301 1052 0
-148 -301 -1052 0
1052 1047 -454 0
-1052 1047 454 0
1052 -1047 454 0
-1052 -1047 -454 0
1047 -1053 0
1052 -1053 0
-1047 -1052 1053 0
301 -1054 0
148 -1054 0
-301 -148 1054 0
-1053 1051 0
-1054 1051 0
1053 1054 -1051 0
149 302 -1056 0
-149 302 1056 0
149 -302 1056 0
-149 -302 -1056 0
1056 1051 -455 0
-1056 1051 455 0
1056 -1051 455 0
-1056 -1051 -455 0
1051 -1057 0
1056 -1057 0
-1051 -1056 1057 0
302 -1058 0
149 -1058 0
-302 -149 1058 0
-1057 1055 0
-1058 1055 0
1057 1058 -1055 0
150 303 -1060 0
-150 303 1060 0
150 -303 1060 0
-150 -303 -1060 0
1060 1055 -456 0
-1060 1055 456 0
1060 -1055 456 0
-1060 -1055 -456 0
1055 -1061 0
1060 -1061 0
-1055 -1060 1061 0
303 -1062 0
150 -1062 0
-303 -150 1062 0
-1061 1059 0
-1062 1059 0
1061 1062 -1059 0
151 304 -1064 0
-151 304 1064 0
151 -304 1064 0
-151 -304 -1064 0
1064 1059 -457 0
-1064 1059 457 0
1064 -1059 457 0
-1064 -1059 -457 0
1059 -1065 0
1064 -1065 0
-1059 -1064 1065 0
304 -1066 0
151 -1066 0
-304 -151 1066 0
-1065 1063 0
-1066 1063 0
1065 1066 -1063 0
152 305 -1068 0
-152 305 1068 0
152 -305 1068 0
-152 -305 -1068 0
1068 1063 -458 0
-1068 1063 458 0
1068 -1063 458 0
-1068 -1063 -458 0
1063 -1069 0
1068 -1069 0
-1063 -1068 1069 0
305 -1070 0
152 -1070 0
-305 -152 1070 0
-1069 1067 0
-1070 1067 0
1069 1070 -1067 0
153 306 -1071 0
-153 306 1071 0
153 -306 1071 0
-153 -306 -1071 0
1071 1067 -459 0
-1071 1067 459 0
1071 -1067 459 0
-1071 -1067 -459 0
1067 -1072 0
1071 -1072 0
-1067 -1071 1072 0
306 -1073 0
153 -1073 0
-306 -153 1073 0
-1072 460 0
-1073 460 0
1072 1073 -460 0
